instances_and_solutions/tournament/dzn/solutions/circ14enonbal.dzn.txt
{"type": "statistics", "statistics": {"paths": 0, "flatBoolVars": 1092, "flatIntVars": 1079, "flatBoolConstraints": 728, "flatIntConstraints": 2017, "evaluatedHalfReifiedConstraints": 1092, "method": "minimize", "flatTime": 0.807315}}
{"type": "comment", "comment": "% Pruned 49997 learnt clauses"}
{"type": "comment", "comment": "% Pruned 49997 learnt clauses"}
{"type": "comment", "comment": "% Pruned 49994 learnt clauses"}
{"type": "comment", "comment": "% Pruned 50000 learnt clauses"}
{"type": "comment", "comment": "% Pruned 49996 learnt clauses"}
{"type": "comment", "comment": "% Pruned 49994 learnt clauses"}
{"type": "comment", "comment": "% Pruned 49991 learnt clauses"}
{"type": "comment", "comment": "% Pruned 49997 learnt clauses"}
{"type": "comment", "comment": "% Pruned 49993 learnt clauses"}
{"type": "comment", "comment": "% Pruned 49990 learnt clauses"}
{"type": "comment", "comment": "% Pruned 49996 learnt clauses"}
{"type": "comment", "comment": "% Pruned 49991 learnt clauses"}
{"type": "comment", "comment": "% Pruned 49995 learnt clauses"}
{"type": "comment", "comment": "% Pruned 49989 learnt clauses"}
{"type": "comment", "comment": "% Pruned 49993 learnt clauses"}
{"type": "comment", "comment": "% Time limit exceeded!"}
{"type": "status", "status": "UNKNOWN"}
{"type": "statistics", "statistics": {"nSolutions": 0}}
{"type": "statistics", "statistics": {"nodes": 873047, "failures": 819264, "restarts": 0, "variables": 88430, "intVars": 1261, "boolVariables": 87167, "propagators": 1613, "propagations": 377962918, "peakDepth": 19, "nogoods": 819264, "backjumps": 53775, "peakMem": 0.0, "time": 600.146, "initTime": 0.146, "solveTime": 600.0, "objective": -1, "optTime": 0.0, "baseMem": 0.0, "trailMem": 0.08, "randomSeed": 1667818981}}
